(set-info :source |
 Generated by Alive 0.1
 More info in N. P. Lopes, D. Menendez, S. Nagarakatte, J. Regehr.
 Provably Correct Peephole Optimizations with Alive. In PLDI'15.
|)

(set-info :status unknown)
(declare-fun %Y () (_ BitVec 46))
(assert
 (let ((?x451257 ((_ zero_extend 17) %Y)))
 (let (($x451266 (and (distinct ?x451257 (_ bv0 63)) true)))
 (and $x451266 false))))
(check-sat)
